# 11946
param k := 6;
param n := 60;
param s := 1;
set E :=  (0,6) (0,17) (1,45) (2,54) (3,11) (3,55) (4,16) (4,31) (4,47) (5,10) (5,16) (5,36) (5,57) (7,25) (8,10) (8,58) (9,12) (10,45) (10,48) (11,24) (12,28) (12,34) (12,43) (13,32) (13,54) (14,59) (15,17) (15,40) (15,49) (15,59) (17,48) (18,34) (19,25) (19,31) (20,44) (21,28) (21,38) (21,48) (21,52) (22,26) (22,51) (23,55) (27,59) (28,44) (29,30) (29,48) (29,50) (29,55) (31,43) (31,50) (33,38) (34,56) (35,37) (37,42) (37,53) (39,50) (40,42) (40,46) (41,48) (42,54) (48,53) (51,59);